\ This file has been generated by DOcplex
\ ENCODING=ISO-8859-1
\Problem name: random_problem.lp

Minimize
 obj: - 508 x0 - 254 x1 - 127 x2 + 208 x3 + 104 x4 + 52 x5 - 836 x6 - 418 x7
      - 209 x8 - 916 x9 - 458 x10 - 229 x11 + 712 x12 + 356 x13 + 178 x14
      - 484 x15 - 242 x16 - 121 x17 + 392 x18 + 196 x19 + 98 x20 + [ 1408 x0^2
      + 1408 x0*x1 + 704 x0*x2 + 4224 x0*x3 + 2112 x0*x4 + 1056 x0*x5
      + 4608 x0*x6 + 2304 x0*x7 + 1152 x0*x8 + 128 x0*x9 + 64 x0*x10 + 32 x0*x11
      + 6016 x0*x12 + 3008 x0*x13 + 1504 x0*x14 + 2304 x0*x15 + 1152 x0*x16
      + 576 x0*x17 + 2944 x0*x18 + 1472 x0*x19 + 736 x0*x20 + 352 x1^2
      + 352 x1*x2 + 2112 x1*x3 + 1056 x1*x4 + 528 x1*x5 + 2304 x1*x6
      + 1152 x1*x7 + 576 x1*x8 + 64 x1*x9 + 32 x1*x10 + 16 x1*x11 + 3008 x1*x12
      + 1504 x1*x13 + 752 x1*x14 + 1152 x1*x15 + 576 x1*x16 + 288 x1*x17
      + 1472 x1*x18 + 736 x1*x19 + 368 x1*x20 + 88 x2^2 + 1056 x2*x3 + 528 x2*x4
      + 264 x2*x5 + 1152 x2*x6 + 576 x2*x7 + 288 x2*x8 + 32 x2*x9 + 16 x2*x10
      + 8 x2*x11 + 1504 x2*x12 + 752 x2*x13 + 376 x2*x14 + 576 x2*x15
      + 288 x2*x16 + 144 x2*x17 + 736 x2*x18 + 368 x2*x19 + 184 x2*x20
      + 19328 x3^2 + 19328 x3*x4 + 9664 x3*x5 + 20992 x3*x6 + 10496 x3*x7
      + 5248 x3*x8 + 384 x3*x9 + 192 x3*x10 + 96 x3*x11 - 896 x3*x12
      - 448 x3*x13 - 224 x3*x14 + 6016 x3*x15 + 3008 x3*x16 + 1504 x3*x17
      + 9728 x3*x18 + 4864 x3*x19 + 2432 x3*x20 + 4832 x4^2 + 4832 x4*x5
      + 10496 x4*x6 + 5248 x4*x7 + 2624 x4*x8 + 192 x4*x9 + 96 x4*x10
      + 48 x4*x11 - 448 x4*x12 - 224 x4*x13 - 112 x4*x14 + 3008 x4*x15
      + 1504 x4*x16 + 752 x4*x17 + 4864 x4*x18 + 2432 x4*x19 + 1216 x4*x20
      + 1208 x5^2 + 5248 x5*x6 + 2624 x5*x7 + 1312 x5*x8 + 96 x5*x9 + 48 x5*x10
      + 24 x5*x11 - 224 x5*x12 - 112 x5*x13 - 56 x5*x14 + 1504 x5*x15
      + 752 x5*x16 + 376 x5*x17 + 2432 x5*x18 + 1216 x5*x19 + 608 x5*x20
      + 17024 x6^2 + 17024 x6*x7 + 8512 x6*x8 + 5760 x6*x9 + 2880 x6*x10
      + 1440 x6*x11 + 1664 x6*x12 + 832 x6*x13 + 416 x6*x14 + 2816 x6*x15
      + 1408 x6*x16 + 704 x6*x17 - 896 x6*x18 - 448 x6*x19 - 224 x6*x20
      + 4256 x7^2 + 4256 x7*x8 + 2880 x7*x9 + 1440 x7*x10 + 720 x7*x11
      + 832 x7*x12 + 416 x7*x13 + 208 x7*x14 + 1408 x7*x15 + 704 x7*x16
      + 352 x7*x17 - 448 x7*x18 - 224 x7*x19 - 112 x7*x20 + 1064 x8^2
      + 1440 x8*x9 + 720 x8*x10 + 360 x8*x11 + 416 x8*x12 + 208 x8*x13
      + 104 x8*x14 + 704 x8*x15 + 352 x8*x16 + 176 x8*x17 - 224 x8*x18
      - 112 x8*x19 - 56 x8*x20 + 6528 x9^2 + 6528 x9*x10 + 3264 x9*x11
      - 1664 x9*x12 - 832 x9*x13 - 416 x9*x14 + 2688 x9*x15 + 1344 x9*x16
      + 672 x9*x17 + 3328 x9*x18 + 1664 x9*x19 + 832 x9*x20 + 1632 x10^2
      + 1632 x10*x11 - 832 x10*x12 - 416 x10*x13 - 208 x10*x14 + 1344 x10*x15
      + 672 x10*x16 + 336 x10*x17 + 1664 x10*x18 + 832 x10*x19 + 416 x10*x20
      + 408 x11^2 - 416 x11*x12 - 208 x11*x13 - 104 x11*x14 + 672 x11*x15
      + 336 x11*x16 + 168 x11*x17 + 832 x11*x18 + 416 x11*x19 + 208 x11*x20
      + 21248 x12^2 + 21248 x12*x13 + 10624 x12*x14 + 3712 x12*x15
      + 1856 x12*x16 + 928 x12*x17 + 8960 x12*x18 + 4480 x12*x19 + 2240 x12*x20
      + 5312 x13^2 + 5312 x13*x14 + 1856 x13*x15 + 928 x13*x16 + 464 x13*x17
      + 4480 x13*x18 + 2240 x13*x19 + 1120 x13*x20 + 1328 x14^2 + 928 x14*x15
      + 464 x14*x16 + 232 x14*x17 + 2240 x14*x18 + 1120 x14*x19 + 560 x14*x20
      + 5376 x15^2 + 5376 x15*x16 + 2688 x15*x17 + 9216 x15*x18 + 4608 x15*x19
      + 2304 x15*x20 + 1344 x16^2 + 1344 x16*x17 + 4608 x16*x18 + 2304 x16*x19
      + 1152 x16*x20 + 336 x17^2 + 2304 x17*x18 + 1152 x17*x19 + 576 x17*x20
      + 9728 x18^2 + 9728 x18*x19 + 4864 x18*x20 + 2432 x19^2 + 2432 x19*x20
      + 608 x20^2 ]/2
Subject To
 c0: 4 x0 + 2 x1 + x2 + 4 x3 + 2 x4 + x5 + 4 x6 + 2 x7 + x8 + 4 x9 + 2 x10 + x11
     + 4 x12 + 2 x13 + x14 + 4 x15 + 2 x16 + x17 + 4 x18 + 2 x19 + x20 = 7

Bounds
 0 <= x0 <= 1
 0 <= x1 <= 1
 0 <= x2 <= 1
 0 <= x3 <= 1
 0 <= x4 <= 1
 0 <= x5 <= 1
 0 <= x6 <= 1
 0 <= x7 <= 1
 0 <= x8 <= 1
 0 <= x9 <= 1
 0 <= x10 <= 1
 0 <= x11 <= 1
 0 <= x12 <= 1
 0 <= x13 <= 1
 0 <= x14 <= 1
 0 <= x15 <= 1
 0 <= x16 <= 1
 0 <= x17 <= 1
 0 <= x18 <= 1
 0 <= x19 <= 1
 0 <= x20 <= 1

Binaries
 x0 x1 x2 x3 x4 x5 x6 x7 x8 x9 x10 x11 x12 x13 x14 x15 x16 x17 x18 x19 x20
End
